NAME : morphed18-5-7
COMMENT : Generated using the function morphInstances from the R-package netgen (Bossek,2015) - Number of clusters: 5 Alpha: 0.5
TYPE : TSP
DIMENSION : 18
EDGE_WEIGHT_TYPE : EUC_2D
NODE_COORD_SECTION
1 97.0127628011 57.0785998217
2 68.8409732195 20.3123572519
3 32.823702598 61.0443522595
4 15.5748618394 29.3420977199
5 25.51656754 99.1432710508
6 71.6578400156 76.5618302186
7 45.386108403 78.5583106179
8 98.3124969224 7.4582445371
9 33.412377245 57.0449161828
10 47.9144633223 47.2691726958
11 17.5368046874 94.92049455
12 23.7260789939 35.5112087376
13 73.3306349907 64.4329625599
14 12.9948799921 26.6047456501
15 65.7408426015 11.9404401863
16 46.4402010576 9.5577183248
17 75.3084962061 26.4804269849
18 11.7979627909 86.8452945823
EOF
